multiobj/instances/reallike/Ter-rl-5-2-0.00-0.5-2.in
5 2
0 46 118 40 96 
46 0 88 10 53 
118 88 0 85 53 
40 10 85 0 56 
96 53 53 56 0 
0 0 57 0 0 
0 0 0 0 1522 
57 0 0 132 3297 
0 0 132 0 1 
0 1522 3297 1 0 
0 0 0 271 1010 
0 0 67 160 0 
0 67 0 0 0 
271 160 0 0 97 
1010 0 0 97 0 
