multiobj/solutions/reallike/Ter-rl-5-2-0.00-0.5-2.out
10 2
2 0 1 4 3 
211836 248174 
4 0 1 2 3 
217144 202260 
4 0 3 2 1 
234964 195978 
0 4 1 2 3 
265050 185308 
0 2 1 4 3 
344028 172448 
1 4 0 2 3 
470790 114210 
3 4 0 2 1 
500544 113166 
1 2 0 4 3 
553200 92562 
1 4 2 0 3 
772218 90714 
3 4 2 0 1 
782538 88626 
